CRYSTAL
PRIMVEC
7.1445097923 0.0 0.0
0.0 7.1445097923 0.0
0.0 0.0 7.1445097923
PRIMCOORD
63 1
C 7.143523300324489 7.143523300324489 3.571311548660724 0.031013423997640257 0.031013423997640257 -0.02351166298322463
C 7.143523300324489 3.571311548660724 7.143523300324489 0.031013423997640257 -0.02351166298322463 0.031013423997640257
C 0.00028094835873726255 3.572035695436682 3.572035695436682 0.029628322562931967 -0.030421949456813674 -0.030421949456813674
C 3.571311548660724 7.143523300324489 7.143523300324489 -0.02351166298322463 0.031013423997640257 0.031013423997640257
C 3.572035695436682 0.00028094835873726255 3.572035695436682 -0.030421949456813674 0.029628322562934854 -0.030421949456813674
C 3.572035695436682 3.572035695436682 0.00028094835873726255 -0.030421949456813674 -0.030421949456813674 0.029628322562931967
C 3.5732344199568953 3.5732344199568953 3.5732344199568953 -0.02613785828559917 -0.02613785828559917 -0.02613785828559917
C 1.7838109097680632 1.7838109097680632 0.04086379497745655 0.00014429173680165788 0.00014429173679877244 0.02344908877549299
C 1.7863868037188164 1.7863868037188164 3.5815479336918425 0.0030787018846144113 0.003078701884611526 -0.02674942092561447
C 1.7661556553832538 5.372563783408489 7.134025026363306 0.012170084862597344 -0.005106366291028039 0.031219085537490237
C 1.7831217021202266 5.366092369211927 3.5658688670941716 0.0018629497980701042 0.00045751948373708656 -0.023093103599835706
C 5.372563783408489 1.7661556553832538 7.134025026363306 -0.005106366291030924 0.012170084862591572 0.031219085537490237
C 5.366092369211927 1.7831217021202266 3.5658688670941716 0.0004575194837342011 0.0018629497980643334 -0.023093103599838592
C 5.361069637231072 5.361069637231072 0.004265647851478337 0.022458952225477103 0.022458952225479986 0.04269746371232317
C 5.3591558259536844 5.3591558259536844 3.5701921609434013 0.0019242804155679104 0.0019242804155736814 -0.02900858377658078
C 1.7838109097680632 0.04086379497745655 1.7838109097680632 0.00014429173680165788 0.02344908877549299 0.00014429173679877244
C 1.7661556553832538 7.134025026363306 5.372563783408489 0.012170084862597344 0.031219085537490237 -0.005106366291028039
C 1.7863868037188164 3.5815479336918425 1.7863868037188164 0.0030787018846144113 -0.02674942092561447 0.003078701884611526
C 1.7831217021202266 3.5658688670941716 5.366092369211927 0.0018629497980701042 -0.023093103599835706 0.00045751948373708656
C 5.372563783408489 7.134025026363306 1.7661556553832538 -0.005106366291030924 0.031219085537490237 0.012170084862591572
C 5.361069637231072 0.004265647851478337 5.361069637231072 0.022458952225477103 0.04269746371232317 0.022458952225479986
C 5.366092369211927 3.5658688670941716 1.7831217021202266 0.0004575194837342011 -0.023093103599838592 0.001862949798067219
C 5.3591558259536844 3.5701921609434013 5.3591558259536844 0.0019242804155679104 -0.02900858377658078 0.0019242804155707957
C 0.04086379497745655 1.7838109097680632 1.7838109097680632 0.02344908877549299 0.00014429173679877244 0.00014429173679877244
C 7.134025026363306 1.7661556553832538 5.372563783408489 0.031219085537490237 0.012170084862591572 -0.005106366291028039
C 7.134025026363306 5.372563783408489 1.7661556553832538 0.031219085537490237 -0.005106366291028039 0.012170084862591572
C 0.004265647851478337 5.361069637231072 5.361069637231072 0.04269746371232317 0.022458952225479986 0.022458952225479986
C 3.5815479336918425 1.7863868037188164 1.7863868037188164 -0.02674942092561447 0.003078701884611526 0.003078701884611526
C 3.5658688670941716 1.7831217021202266 5.366092369211927 -0.023093103599835706 0.0018629497980643334 0.00045751948373708656
C 3.5658688670941716 5.366092369211927 1.7831217021202266 -0.023093103599835706 0.00045751948373708656 0.0018629497980643334
C 3.5701921609434013 5.3591558259536844 5.3591558259536844 -0.02900858377658078 0.0019242804155736814 0.0019242804155707957
C 0.8891763930223894 0.8891763930223894 4.473102038950778 -0.02497074295024552 -0.02497074295023974 0.020063986214119103
C 0.8891763930223894 4.473102038950778 0.8891763930223894 -0.02497074295024263 0.020063986214119103 -0.02497074295024263
C 0.8857532038595732 4.458549744437919 4.458549744437919 -0.018049948366932547 0.015380825650602047 0.015380825650602047
C 4.473102038950778 0.8891763930223894 0.8891763930223894 0.02006398621412199 -0.02497074295023974 -0.02497074295024263
C 4.458549744437919 0.8857532038595732 4.458549744437919 0.015380825650602047 -0.01804994836692966 0.015380825650602047
C 4.458549744437919 4.458549744437919 0.8857532038595732 0.015380825650602047 0.015380825650602047 -0.01804994836692966
C 4.465820367815873 4.465820367815873 4.465820367815873 0.020108020022806112 0.020108020022803225 0.020108020022803225
C 2.6896792751166303 2.6896792751166303 0.8954254910234745 0.020802842741847433 0.020802842741850316 -0.022994978540035356
C 2.677938085053943 2.677938085053943 4.4718551243359785 0.01659151923888855 0.016591519238891433 0.01738375847229091
C 2.663263170895563 6.266913398561209 0.8841403363493225 0.01395083723198239 -0.017577090562379154 -0.020873313202993266
C 2.6802881031407284 6.256255573917596 4.461247860988759 0.018083542020536796 -0.018941387858243907 0.01809655348690882
C 6.266913398561209 2.663263170895563 0.8841403363493225 -0.01757709056237627 0.013950837231985277 -0.02087331320299615
C 6.256255573917596 2.6802881031407284 4.461247860988759 -0.018941387858238137 0.018083542020539682 0.01809655348690882
C 6.1896884910753345 6.1896884910753345 0.9287494919753306 -0.024854833901504468 -0.024854833901507355 -0.04111257175571466
C 6.2508189224933135 6.2508189224933135 4.4659301075172175 -0.027065777276951638 -0.027065777276954524 0.010478697508170402
C 2.6896792751166303 0.8954254910234745 2.6896792751166303 0.020802842741847433 -0.022994978540035356 0.020802842741850316
C 2.663263170895563 0.8841403363493225 6.266913398561209 0.01395083723198239 -0.020873313202993266 -0.01757709056237627
C 2.677938085053943 4.4718551243359785 2.677938085053943 0.01659151923888855 0.01738375847229091 0.016591519238891433
C 2.6802881031407284 4.461247860988759 6.256255573917596 0.018083542020536796 0.01809655348690882 -0.018941387858241024
C 6.266913398561209 0.8841403363493225 2.663263170895563 -0.01757709056237627 -0.020873313202993266 0.013950837231985277
C 6.1896884910753345 0.9287494919753306 6.1896884910753345 -0.024854833901504468 -0.04111257175571466 -0.024854833901507355
C 6.256255573917596 4.461247860988759 2.6802881031407284 -0.018941387858238137 0.01809655348690882 0.018083542020539682
C 6.2508189224933135 4.4659301075172175 6.2508189224933135 -0.027065777276951638 0.010478697508170402 -0.027065777276954524
C 0.8954254910234745 2.6896792751166303 2.6896792751166303 -0.02299497854003824 0.020802842741850316 0.020802842741850316
C 0.8841403363493225 2.663263170895563 6.266913398561209 -0.02087331320299615 0.013950837231985277 -0.01757709056237627
C 0.8841403363493225 6.266913398561209 2.663263170895563 -0.02087331320299615 -0.01757709056237627 0.013950837231985277
C 0.9287494919753306 6.1896884910753345 6.1896884910753345 -0.041112571755720424 -0.024854833901507355 -0.024854833901507355
C 4.4718551243359785 2.677938085053943 2.677938085053943 0.017383758472293797 0.016591519238891433 0.016591519238891433
C 4.461247860988759 2.6802881031407284 6.256255573917596 0.018096553486911703 0.018083542020539682 -0.018941387858241024
C 4.461247860988759 6.256255573917596 2.6802881031407284 0.018096553486911703 -0.018941387858243907 0.018083542020539682
C 4.4659301075172175 6.2508189224933135 6.2508189224933135 0.010478697508173287 -0.027065777276954524 -0.027065777276954524
N 0.972443211547442 0.972443211547442 0.972443211547442 -0.004280775307595677 -0.0042807753075930054 -0.0042807753075930054
