CRYSTAL
PRIMVEC
7.1445097923 0.0 0.0
0.0 7.1445097923 0.0
0.0 0.0 7.1445097923
PRIMCOORD
63 1
C 7.143523300324489 7.143523300324489 3.571311548660724 0.004592266837406861 -0.004592266837409746 0.0
C 7.143523300324489 3.571311548660724 7.143523300324489 -0.004592266837406861 0.0 0.004592266837409746
C 0.00028094835873726255 3.572035695436682 3.572035695436682 -0.0 0.002690894635325159 -0.002690894635325159
C 3.571311548660724 7.143523300324489 7.143523300324489 -0.0 0.004592266837409746 -0.004592266837409746
C 3.572035695436682 0.00028094835873726255 3.572035695436682 -0.002690894635325159 0.0 0.002690894635325159
C 3.572035695436682 3.572035695436682 0.00028094835873726255 0.002690894635325159 -0.002690894635325159 0.0
C 3.5732344199568953 3.5732344199568953 3.5732344199568953 0.0 -0.0 -0.0
C 1.7838109097680632 1.7838109097680632 0.04086379497745655 -0.02910246504321913 0.02910246504321913 -2.8854291605143158e-15
C 1.7863868037188164 1.7863868037188164 3.5815479336918425 0.028016538171630245 -0.028016538171630245 2.8854291605143158e-15
C 1.7661556553832538 5.372563783408489 7.134025026363306 -0.025730535536209066 -0.03094677509648579 0.007977495510423899
C 1.7831217021202266 5.366092369211927 3.5658688670941716 0.031961138668645146 0.027686577189718804 -0.01014563751345388
C 5.372563783408489 1.7661556553832538 7.134025026363306 0.03094677509648579 0.025730535536209066 -0.007977495510423899
C 5.366092369211927 1.7831217021202266 3.5658688670941716 -0.027686577189718804 -0.031961138668645146 0.01014563751345388
C 5.361069637231072 5.361069637231072 0.004265647851478337 0.02681904602186177 -0.02681904602186465 2.8854291605143158e-15
C 5.3591558259536844 5.3591558259536844 3.5701921609434013 -0.029111057175433924 0.029111057175433924 -2.8854291605143158e-15
C 1.7838109097680632 0.04086379497745655 1.7838109097680632 0.02910246504321913 2.8854291605143158e-15 -0.02910246504321913
C 1.7661556553832538 7.134025026363306 5.372563783408489 0.025730535536209066 -0.007977495510423899 0.03094677509648579
C 1.7863868037188164 3.5815479336918425 1.7863868037188164 -0.028016538171630245 -2.8854291605143158e-15 0.028016538171630245
C 1.7831217021202266 3.5658688670941716 5.366092369211927 -0.031961138668645146 0.01014563751345388 -0.027686577189718804
C 5.372563783408489 7.134025026363306 1.7661556553832538 -0.03094677509648579 0.007977495510423899 -0.025730535536209066
C 5.361069637231072 0.004265647851478337 5.361069637231072 -0.02681904602186177 -2.8854291605143158e-15 0.02681904602186465
C 5.366092369211927 3.5658688670941716 1.7831217021202266 0.027686577189718804 -0.01014563751345388 0.031961138668645146
C 5.3591558259536844 3.5701921609434013 5.3591558259536844 0.029111057175433924 2.8854291605143158e-15 -0.029111057175433924
C 0.04086379497745655 1.7838109097680632 1.7838109097680632 -0.0 -0.02910246504321913 0.02910246504321913
C 7.134025026363306 1.7661556553832538 5.372563783408489 0.007977495510421014 -0.025730535536209066 -0.03094677509648579
C 7.134025026363306 5.372563783408489 1.7661556553832538 -0.007977495510421014 0.03094677509648579 0.025730535536209066
C 0.004265647851478337 5.361069637231072 5.361069637231072 0.0 0.02681904602186177 -0.02681904602186465
C 3.5815479336918425 1.7863868037188164 1.7863868037188164 0.0 0.028016538171627362 -0.028016538171630245
C 3.5658688670941716 1.7831217021202266 5.366092369211927 -0.010145637513450996 0.03196113866864803 0.027686577189718804
C 3.5658688670941716 5.366092369211927 1.7831217021202266 0.010145637513450996 -0.027686577189718804 -0.031961138668645146
C 3.5701921609434013 5.3591558259536844 5.3591558259536844 -0.0 -0.029111057175433924 0.029111057175433924
C 0.8891763930223894 0.8891763930223894 4.473102038950778 0.033469637272991765 -0.033469637272991765 0.0
C 0.8891763930223894 4.473102038950778 0.8891763930223894 -0.033469637272991765 -0.0 0.03346963727299465
C 0.8857532038595732 4.458549744437919 4.458549744437919 -0.0 0.034724813154856975 -0.034724813154856975
C 4.473102038950778 0.8891763930223894 0.8891763930223894 0.0 0.033469637272991765 -0.03346963727299465
C 4.458549744437919 0.8857532038595732 4.458549744437919 -0.034724813154854095 -0.0 0.034724813154856975
C 4.458549744437919 4.458549744437919 0.8857532038595732 0.034724813154854095 -0.034724813154856975 0.0
C 4.465820367815873 4.465820367815873 4.465820367815873 0.0 0.0 -0.0
C 2.6896792751166303 2.6896792751166303 0.8954254910234745 -0.028682685922492825 0.02868268592248994 -0.0
C 2.677938085053943 2.677938085053943 4.4718551243359785 -0.007284233615263519 0.007284233615263519 0.0
C 2.663263170895563 6.266913398561209 0.8841403363493225 0.006258878514889122 -0.02660242152187109 -0.029251991836488588
C 2.6802881031407284 6.256255573917596 4.461247860988759 0.027260937766381124 -0.00462759053946355 0.02695405404469839
C 6.266913398561209 2.663263170895563 0.8841403363493225 0.02660242152187109 -0.006258878514889122 0.029251991836488588
C 6.256255573917596 2.6802881031407284 4.461247860988759 0.00462759053946355 -0.027260937766378238 -0.02695405404469839
C 6.1896884910753345 6.1896884910753345 0.9287494919753306 -0.006599593239406919 0.006599593239409804 0.0
C 6.2508189224933135 6.2508189224933135 4.4659301075172175 -0.02712691639505444 0.02712691639505156 -0.0
C 2.6896792751166303 0.8954254910234745 2.6896792751166303 0.028682685922492825 0.0 -0.02868268592248994
C 2.663263170895563 0.8841403363493225 6.266913398561209 -0.006258878514889122 0.029251991836488588 0.02660242152187109
C 2.677938085053943 4.4718551243359785 2.677938085053943 0.007284233615263519 -0.0 -0.007284233615263519
C 2.6802881031407284 4.461247860988759 6.256255573917596 -0.027260937766381124 -0.02695405404469839 0.00462759053946355
C 6.266913398561209 0.8841403363493225 2.663263170895563 -0.026602421521873976 -0.029251991836488588 0.006258878514889122
C 6.1896884910753345 0.9287494919753306 6.1896884910753345 0.006599593239409804 -0.0 -0.006599593239409804
C 6.256255573917596 4.461247860988759 2.6802881031407284 -0.00462759053946355 0.02695405404469839 0.027260937766378238
C 6.2508189224933135 4.4659301075172175 6.2508189224933135 0.02712691639505444 0.0 -0.02712691639505156
C 0.8954254910234745 2.6896792751166303 2.6896792751166303 -0.0 -0.028682685922492825 0.028682685922492825
C 0.8841403363493225 2.663263170895563 6.266913398561209 -0.02925199183649147 0.006258878514889122 -0.026602421521873976
C 0.8841403363493225 6.266913398561209 2.663263170895563 0.02925199183649147 0.026602421521873976 -0.006258878514889122
C 0.9287494919753306 6.1896884910753345 6.1896884910753345 0.0 -0.006599593239409804 0.006599593239409804
C 4.4718551243359785 2.677938085053943 2.677938085053943 0.0 -0.007284233615263519 0.007284233615263519
C 4.461247860988759 2.6802881031407284 6.256255573917596 0.02695405404469839 0.027260937766381124 -0.00462759053946355
C 4.461247860988759 6.256255573917596 2.6802881031407284 -0.02695405404469839 0.00462759053946355 -0.027260937766381124
C 4.4659301075172175 6.2508189224933135 6.2508189224933135 -0.0 -0.02712691639505444 0.02712691639505444
N 0.972443211547442 0.972443211547442 0.972443211547442 0.0 0.0 -0.0
