CRYSTAL
PRIMVEC
7.1445097923 0.0 0.0
0.0 7.1445097923 0.0
0.0 0.0 7.1445097923
PRIMCOORD
63 1
C 7.143523300324489 7.143523300324489 3.571311548660724 -0.018665913566472212 -0.018665913566472212 -0.02557740943910505
C 7.143523300324489 3.571311548660724 7.143523300324489 -0.018665913566472212 -0.02557740943910505 -0.018665913566469326
C 0.00028094835873726255 3.572035695436682 3.572035695436682 -0.032563308645691666 0.009610248511817387 0.009610248511817387
C 3.571311548660724 7.143523300324489 7.143523300324489 -0.02557740943910505 -0.018665913566472212 -0.018665913566469326
C 3.572035695436682 0.00028094835873726255 3.572035695436682 0.009610248511817387 -0.032563308645691666 0.009610248511817387
C 3.572035695436682 3.572035695436682 0.00028094835873726255 0.009610248511817387 0.009610248511817387 -0.032563308645691666
C 3.5732344199568953 3.5732344199568953 3.5732344199568953 -0.002410421685105895 -0.002410421685105895 -0.002410421685105895
C 1.7838109097680632 1.7838109097680632 0.04086379497745655 0.0015479077289453338 0.0015479077289453338 0.011666480213181197
C 1.7863868037188164 1.7863868037188164 3.5815479336918425 0.024128260998961114 0.024128260998961114 0.03017251049719359
C 1.7661556553832538 5.372563783408489 7.134025026363306 0.00930687492095537 -0.023991895408022473 0.005249917186953278
C 1.7831217021202266 5.366092369211927 3.5658688670941716 -0.03058459687252595 0.014658866025601163 0.01512062508778562
C 5.372563783408489 1.7661556553832538 7.134025026363306 -0.023991895408022473 0.00930687492095537 0.005249917186953278
C 5.366092369211927 1.7831217021202266 3.5658688670941716 0.014658866025601163 -0.03058459687252595 0.01512062508778562
C 5.361069637231072 5.361069637231072 0.004265647851478337 0.0347307791996119 0.0347307791996119 -0.004221402570782294
C 5.3591558259536844 5.3591558259536844 3.5701921609434013 -0.018859349484703622 -0.018859349484703622 -0.0014967239055015372
C 1.7838109097680632 0.04086379497745655 1.7838109097680632 0.0015479077289453338 0.011666480213184083 0.0015479077289453338
C 1.7661556553832538 7.134025026363306 5.372563783408489 0.00930687492095537 0.005249917186953278 -0.023991895408022473
C 1.7863868037188164 3.5815479336918425 1.7863868037188164 0.024128260998961114 0.03017251049719359 0.02412826099895823
C 1.7831217021202266 3.5658688670941716 5.366092369211927 -0.03058459687252595 0.01512062508778562 0.014658866025601163
C 5.372563783408489 7.134025026363306 1.7661556553832538 -0.023991895408025356 0.005249917186953278 0.009306874920952486
C 5.361069637231072 0.004265647851478337 5.361069637231072 0.0347307791996119 -0.004221402570782294 0.0347307791996119
C 5.366092369211927 3.5658688670941716 1.7831217021202266 0.014658866025601163 0.01512062508778562 -0.030584596872528836
C 5.3591558259536844 3.5701921609434013 5.3591558259536844 -0.018859349484703622 -0.0014967239055015372 -0.018859349484703622
C 0.04086379497745655 1.7838109097680632 1.7838109097680632 0.011666480213184083 0.0015479077289453338 0.0015479077289453338
C 7.134025026363306 1.7661556553832538 5.372563783408489 0.005249917186950392 0.00930687492095537 -0.023991895408022473
C 7.134025026363306 5.372563783408489 1.7661556553832538 0.005249917186950392 -0.023991895408022473 0.009306874920952486
C 0.004265647851478337 5.361069637231072 5.361069637231072 -0.004221402570782294 0.0347307791996119 0.0347307791996119
C 3.5815479336918425 1.7863868037188164 1.7863868037188164 0.03017251049719359 0.024128260998961114 0.02412826099895823
C 3.5658688670941716 1.7831217021202266 5.366092369211927 0.01512062508778562 -0.03058459687252595 0.014658866025601163
C 3.5658688670941716 5.366092369211927 1.7831217021202266 0.01512062508778562 0.014658866025601163 -0.030584596872528836
C 3.5701921609434013 5.3591558259536844 5.3591558259536844 -0.0014967239055015372 -0.018859349484703622 -0.018859349484703622
C 0.8891763930223894 0.8891763930223894 4.473102038950778 -0.006428500918373315 -0.006428500918373315 -0.032239879923082956
C 0.8891763930223894 4.473102038950778 0.8891763930223894 -0.006428500918373315 -0.032239879923082956 -0.006428500918373315
C 0.8857532038595732 4.458549744437919 4.458549744437919 -0.05503310687109343 0.02617667067996875 0.026176670679971634
C 4.473102038950778 0.8891763930223894 0.8891763930223894 -0.032239879923082956 -0.006428500918373315 -0.006428500918373315
C 4.458549744437919 0.8857532038595732 4.458549744437919 0.026176670679971634 -0.05503310687109343 0.026176670679971634
C 4.458549744437919 4.458549744437919 0.8857532038595732 0.026176670679971634 0.02617667067996875 -0.05503310687109343
C 4.465820367815873 4.465820367815873 4.465820367815873 -0.02304969071178293 -0.02304969071178293 -0.02304969071178293
C 2.6896792751166303 2.6896792751166303 0.8954254910234745 0.02534317015812222 0.02534317015812222 0.030696659999421217
C 2.677938085053943 2.677938085053943 4.4718551243359785 0.0061692887643508935 0.0061692887643508935 0.03660664099985123
C 2.663263170895563 6.266913398561209 0.8841403363493225 -0.005339773510265176 -0.008039598974691075 -0.0046183793830137905
C 2.6802881031407284 6.256255573917596 4.461247860988759 -0.008362905579855227 -0.010564655191899336 -0.005393349738121044
C 6.266913398561209 2.663263170895563 0.8841403363493225 -0.008039598974691075 -0.005339773510265176 -0.0046183793830137905
C 6.256255573917596 2.6802881031407284 4.461247860988759 -0.010564655191899336 -0.008362905579855227 -0.005393349738121044
C 6.1896884910753345 6.1896884910753345 0.9287494919753306 0.001862582111424539 0.001862582111424539 0.04731092302321459
C 6.2508189224933135 6.2508189224933135 4.4659301075172175 -0.004577352387790471 -0.004577352387790471 0.019097982409442466
C 2.6896792751166303 0.8954254910234745 2.6896792751166303 0.02534317015812222 0.030696659999421217 0.02534317015812222
C 2.663263170895563 0.8841403363493225 6.266913398561209 -0.005339773510265176 -0.0046183793830137905 -0.008039598974691075
C 2.677938085053943 4.4718551243359785 2.677938085053943 0.0061692887643508935 0.03660664099985123 0.006169288764348009
C 2.6802881031407284 4.461247860988759 6.256255573917596 -0.008362905579855227 -0.005393349738121044 -0.010564655191899336
C 6.266913398561209 0.8841403363493225 2.663263170895563 -0.008039598974691075 -0.0046183793830137905 -0.005339773510265176
C 6.1896884910753345 0.9287494919753306 6.1896884910753345 0.001862582111424539 0.04731092302321459 0.001862582111424539
C 6.256255573917596 4.461247860988759 2.6802881031407284 -0.010564655191899336 -0.005393349738121044 -0.008362905579855227
C 6.2508189224933135 4.4659301075172175 6.2508189224933135 -0.004577352387790471 0.019097982409439582 -0.004577352387790471
C 0.8954254910234745 2.6896792751166303 2.6896792751166303 0.030696659999421217 0.02534317015812222 0.02534317015812222
C 0.8841403363493225 2.663263170895563 6.266913398561209 -0.0046183793830137905 -0.005339773510265176 -0.008039598974691075
C 0.8841403363493225 6.266913398561209 2.663263170895563 -0.0046183793830137905 -0.008039598974691075 -0.005339773510265176
C 0.9287494919753306 6.1896884910753345 6.1896884910753345 0.04731092302321459 0.001862582111424539 0.001862582111424539
C 4.4718551243359785 2.677938085053943 2.677938085053943 0.03660664099985123 0.0061692887643508935 0.006169288764348009
C 4.461247860988759 2.6802881031407284 6.256255573917596 -0.005393349738121044 -0.008362905579855227 -0.010564655191899336
C 4.461247860988759 6.256255573917596 2.6802881031407284 -0.005393349738121044 -0.010564655191899336 -0.008362905579855227
C 4.4659301075172175 6.2508189224933135 6.2508189224933135 0.019097982409442466 -0.004577352387790471 -0.004577352387790471
N 0.972443211547442 0.972443211547442 0.972443211547442 -0.047723046152047796 -0.047723046152045125 -0.047723046152047796
