CRYSTAL
PRIMVEC
7.1445097923 0.0 0.0
0.0 7.1445097923 0.0
0.0 0.0 7.1445097923
PRIMCOORD
63 1
C 7.143523300324489 7.143523300324489 3.571311548660724 0.0058010944168374375 -0.0058010944168374375 0.0
C 7.143523300324489 3.571311548660724 7.143523300324489 -0.0058010944168374375 0.0 0.0058010944168374375
C 0.00028094835873726255 3.572035695436682 3.572035695436682 0.0 0.004961194851667653 -0.004961194851667653
C 3.571311548660724 7.143523300324489 7.143523300324489 0.0 0.0058010944168374375 -0.0058010944168374375
C 3.572035695436682 0.00028094835873726255 3.572035695436682 -0.004961194851667653 0.0 0.004961194851667653
C 3.572035695436682 3.572035695436682 0.00028094835873726255 0.004961194851667653 -0.004961194851667653 0.0
C 3.5732344199568953 3.5732344199568953 3.5732344199568953 -0.0 -0.0 -0.0
C 1.7838109097680632 1.7838109097680632 0.04086379497745655 0.0036830560328941567 -0.003683056032891271 2.8854291605143158e-15
C 1.7863868037188164 1.7863868037188164 3.5815479336918425 -0.008010427776721514 0.008010427776721514 0.0
C 1.7661556553832538 5.372563783408489 7.134025026363306 0.005824194521793646 0.0024397574530486436 0.05723373505109918
C 1.7831217021202266 5.366092369211927 3.5658688670941716 -0.001156299483102669 -0.005406142035122203 -0.05766372707562631
C 5.372563783408489 1.7661556553832538 7.134025026363306 -0.002439757453054414 -0.0058241945217878755 -0.05723373505109918
C 5.366092369211927 1.7831217021202266 3.5658688670941716 0.005406142035122203 0.001156299483102669 0.05766372707562343
C 5.361069637231072 5.361069637231072 0.004265647851478337 -0.008973560927060344 0.008973560927054572 -0.0
C 5.3591558259536844 5.3591558259536844 3.5701921609434013 0.003917174824449273 -0.003917174824452157 0.0
C 1.7838109097680632 0.04086379497745655 1.7838109097680632 -0.003683056032891271 2.8854291605143158e-15 0.0036830560328941567
C 1.7661556553832538 7.134025026363306 5.372563783408489 -0.0058241945217878755 -0.05723373505109918 -0.002439757453054414
C 1.7863868037188164 3.5815479336918425 1.7863868037188164 0.008010427776721514 2.8854291605143158e-15 -0.008010427776721514
C 1.7831217021202266 3.5658688670941716 5.366092369211927 0.001156299483102669 0.05766372707562343 0.005406142035122203
C 5.372563783408489 7.134025026363306 1.7661556553832538 0.0024397574530486436 0.057233735051096295 0.005824194521793646
C 5.361069637231072 0.004265647851478337 5.361069637231072 0.008973560927054572 0.0 -0.008973560927063228
C 5.366092369211927 3.5658688670941716 1.7831217021202266 -0.005406142035122203 -0.05766372707562631 -0.0011562994830997832
C 5.3591558259536844 3.5701921609434013 5.3591558259536844 -0.003917174824452157 -0.0 0.003917174824449273
C 0.04086379497745655 1.7838109097680632 1.7838109097680632 2.8854291605143158e-15 0.0036830560328941567 -0.003683056032891271
C 7.134025026363306 1.7661556553832538 5.372563783408489 0.05723373505109918 0.005824194521793646 0.0024397574530486436
C 7.134025026363306 5.372563783408489 1.7661556553832538 -0.05723373505110207 -0.002439757453054414 -0.0058241945217878755
C 0.004265647851478337 5.361069637231072 5.361069637231072 0.0 -0.008973560927060344 0.008973560927054572
C 3.5815479336918425 1.7863868037188164 1.7863868037188164 2.8854291605143158e-15 -0.008010427776721514 0.008010427776721514
C 3.5658688670941716 1.7831217021202266 5.366092369211927 -0.05766372707562631 -0.0011562994830997832 -0.005406142035122203
C 3.5658688670941716 5.366092369211927 1.7831217021202266 0.05766372707562343 0.005406142035122203 0.001156299483102669
C 3.5701921609434013 5.3591558259536844 5.3591558259536844 -0.0 0.003917174824449273 -0.003917174824452157
C 0.8891763930223894 0.8891763930223894 4.473102038950778 0.023568549902546723 -0.023568549902543836 0.0
C 0.8891763930223894 4.473102038950778 0.8891763930223894 -0.023568549902546723 0.0 0.023568549902546723
C 0.8857532038595732 4.458549744437919 4.458549744437919 0.0 0.025261058109063844 -0.025261058109066734
C 4.473102038950778 0.8891763930223894 0.8891763930223894 0.0 0.023568549902543836 -0.023568549902543836
C 4.458549744437919 0.8857532038595732 4.458549744437919 -0.025261058109069617 0.0 0.025261058109063844
C 4.458549744437919 4.458549744437919 0.8857532038595732 0.025261058109063844 -0.025261058109066734 0.0
C 4.465820367815873 4.465820367815873 4.465820367815873 -0.0 -0.0 -0.0
C 2.6896792751166303 2.6896792751166303 0.8954254910234745 0.008415816551309413 -0.008415816551306528 2.8854291605143158e-15
C 2.677938085053943 2.677938085053943 4.4718551243359785 -0.031983237324973 0.031983237324973 0.0
C 2.663263170895563 6.266913398561209 0.8841403363493225 0.03161753429090918 0.006430159594690942 0.027524931778584942
C 2.6802881031407284 6.256255573917596 4.461247860988759 -0.00593672735676329 -0.02975343860282977 -0.030207726877241933
C 6.266913398561209 2.663263170895563 0.8841403363493225 -0.006430159594690942 -0.03161753429090918 -0.027524931778584942
C 6.256255573917596 2.6802881031407284 4.461247860988759 0.02975343860282977 0.005936727356766177 0.03020772687723905
C 6.1896884910753345 6.1896884910753345 0.9287494919753306 -0.03132981496250773 0.031329814962493305 8.656287481542948e-15
C 6.2508189224933135 6.2508189224933135 4.4659301075172175 0.008514391098157182 -0.008514391098157182 -0.0
C 2.6896792751166303 0.8954254910234745 2.6896792751166303 -0.008415816551306528 0.0 0.008415816551309413
C 2.663263170895563 0.8841403363493225 6.266913398561209 -0.03161753429090918 -0.027524931778584942 -0.006430159594690942
C 2.677938085053943 4.4718551243359785 2.677938085053943 0.031983237324973 0.0 -0.031983237324973
C 2.6802881031407284 4.461247860988759 6.256255573917596 0.005936727356766177 0.03020772687723905 0.02975343860282977
C 6.266913398561209 0.8841403363493225 2.663263170895563 0.006430159594690942 0.027524931778584942 0.03161753429090918
C 6.1896884910753345 0.9287494919753306 6.1896884910753345 0.031329814962493305 8.656287481542948e-15 -0.03132981496250773
C 6.256255573917596 4.461247860988759 2.6802881031407284 -0.02975343860282977 -0.030207726877241933 -0.00593672735676329
C 6.2508189224933135 4.4659301075172175 6.2508189224933135 -0.008514391098157182 -0.0 0.008514391098154297
C 0.8954254910234745 2.6896792751166303 2.6896792751166303 0.0 0.008415816551309413 -0.008415816551306528
C 0.8841403363493225 2.663263170895563 6.266913398561209 0.027524931778584942 0.03161753429090918 0.0064301595946938276
C 0.8841403363493225 6.266913398561209 2.663263170895563 -0.027524931778584942 -0.006430159594690942 -0.03161753429090918
C 0.9287494919753306 6.1896884910753345 6.1896884910753345 8.656287481542948e-15 -0.03132981496250773 0.031329814962493305
C 4.4718551243359785 2.677938085053943 2.677938085053943 0.0 -0.031983237324973 0.031983237324973
C 4.461247860988759 2.6802881031407284 6.256255573917596 -0.030207726877241933 -0.00593672735676329 -0.02975343860282977
C 4.461247860988759 6.256255573917596 2.6802881031407284 0.03020772687723905 0.02975343860282977 0.005936727356766177
C 4.4659301075172175 6.2508189224933135 6.2508189224933135 -0.0 0.008514391098154297 -0.008514391098157182
N 0.972443211547442 0.972443211547442 0.972443211547442 5.343946261204584e-15 5.343946261204584e-15 5.343946261204584e-15
