CRYSTAL
PRIMVEC
7.1445097923 0.0 0.0
0.0 7.1445097923 0.0
0.0 0.0 7.1445097923
PRIMCOORD
63 1
C 7.143523300324489 7.143523300324489 3.571311548660724 0.000260304609305792 0.000260304609305792 -0.004976606958822721
C 7.143523300324489 3.571311548660724 7.143523300324489 0.000260304609305792 -0.004976606958822721 0.000260304609305792
C 0.00028094835873726255 3.572035695436682 3.572035695436682 -0.00957827741169306 0.003153550963439038 0.0031535509634361527
C 3.571311548660724 7.143523300324489 7.143523300324489 -0.004976606958822721 0.000260304609305792 0.000260304609305792
C 3.572035695436682 0.00028094835873726255 3.572035695436682 0.0031535509634361527 -0.00957827741169306 0.003153550963439038
C 3.572035695436682 3.572035695436682 0.00028094835873726255 0.003153550963439038 0.0031535509634361527 -0.00957827741169306
C 3.5732344199568953 3.5732344199568953 3.5732344199568953 0.0035729435122070262 0.0035729435122070262 0.0035729435122070262
C 1.7838109097680632 1.7838109097680632 0.04086379497745655 -0.015316232517455784 -0.015316232517455784 -0.018886655670031872
C 1.7863868037188164 1.7863868037188164 3.5815479336918425 -0.0058692135966816284 -0.005869213596678743 -0.014245278693006628
C 1.7661556553832538 5.372563783408489 7.134025026363306 -0.023528898389531577 0.01802218380893549 0.011400021874906284
C 1.7831217021202266 5.366092369211927 3.5658688670941716 -0.00391807174935848 -0.005424473090654652 0.009037757005178294
C 5.372563783408489 1.7661556553832538 7.134025026363306 0.01802218380893549 -0.023528898389531577 0.011400021874894741
C 5.366092369211927 1.7831217021202266 3.5658688670941716 -0.005424473090654652 -0.00391807174935848 0.009037757005189837
C 5.361069637231072 5.361069637231072 0.004265647851478337 0.026972862057230398 0.026972862057230398 -0.005619099972432431
C 5.3591558259536844 5.3591558259536844 3.5701921609434013 0.01099795697952317 0.01099795697952317 -0.0004285346918549112
C 1.7838109097680632 0.04086379497745655 1.7838109097680632 -0.015316232517455784 -0.01888665567003476 -0.015316232517455784
C 1.7661556553832538 7.134025026363306 5.372563783408489 -0.023528898389531577 0.011400021874894741 0.018022183808938375
C 1.7863868037188164 3.5815479336918425 1.7863868037188164 -0.005869213596678743 -0.014245278693000858 -0.0058692135966816284
C 1.7831217021202266 3.5658688670941716 5.366092369211927 -0.00391807174935848 0.009037757005189837 -0.005424473090654652
C 5.372563783408489 7.134025026363306 1.7661556553832538 0.018022183808938375 0.011400021874906284 -0.023528898389531577
C 5.361069637231072 0.004265647851478337 5.361069637231072 0.026972862057230398 -0.00561909997242666 0.02697286205722751
C 5.366092369211927 3.5658688670941716 1.7831217021202266 -0.005424473090654652 0.009037757005178294 -0.00391807174935848
C 5.3591558259536844 3.5701921609434013 5.3591558259536844 0.01099795697952317 -0.0004285346918577966 0.01099795697952317
C 0.04086379497745655 1.7838109097680632 1.7838109097680632 -0.01888665567003476 -0.015316232517455784 -0.015316232517455784
C 7.134025026363306 1.7661556553832538 5.372563783408489 0.01140002187490917 -0.023528898389531577 0.018022183808938375
C 7.134025026363306 5.372563783408489 1.7661556553832538 0.011400021874894741 0.01802218380893549 -0.023528898389531577
C 0.004265647851478337 5.361069637231072 5.361069637231072 -0.00561909997242666 0.026972862057230398 0.026972862057230398
C 3.5815479336918425 1.7863868037188164 1.7863868037188164 -0.014245278693000858 -0.005869213596678743 -0.005869213596678743
C 3.5658688670941716 1.7831217021202266 5.366092369211927 0.00903775700517541 -0.00391807174935848 -0.005424473090654652
C 3.5658688670941716 5.366092369211927 1.7831217021202266 0.009037757005192722 -0.005424473090654652 -0.00391807174935848
C 3.5701921609434013 5.3591558259536844 5.3591558259536844 -0.0004285346918577966 0.01099795697952317 0.01099795697952317
C 0.8891763930223894 0.8891763930223894 4.473102038950778 0.00020479953314354076 0.0002047995331377699 -0.006248567747560017
C 0.8891763930223894 4.473102038950778 0.8891763930223894 0.0002047995331377699 -0.006248567747560017 0.00020479953314354076
C 0.8857532038595732 4.458549744437919 4.458549744437919 -0.008006590263665528 0.016225983582476303 0.016225983582470533
C 4.473102038950778 0.8891763930223894 0.8891763930223894 -0.006248567747560017 0.00020479953314354076 0.0002047995331377699
C 4.458549744437919 0.8857532038595732 4.458549744437919 0.016225983582470533 -0.008006590263665528 0.016225983582476303
C 4.458549744437919 4.458549744437919 0.8857532038595732 0.016225983582476303 0.016225983582470533 -0.008006590263668414
C 4.465820367815873 4.465820367815873 4.465820367815873 0.007918305887448565 0.007918305887448565 0.007918305887451451
C 2.6896792751166303 2.6896792751166303 0.8954254910234745 -0.014035897206943548 -0.014035897206946433 -0.012470754982171125
C 2.677938085053943 2.677938085053943 4.4718551243359785 0.0017875115499314392 0.00178751154993721 -0.010269459081604307
C 2.663263170895563 6.266913398561209 0.8841403363493225 -0.0030142996528925805 -0.008167255848997189 0.001503164794149481
C 2.6802881031407284 6.256255573917596 4.461247860988759 -0.01433140304508517 -0.00308778698144819 0.019034493947646978
C 6.266913398561209 2.663263170895563 0.8841403363493225 -0.008167255849000075 -0.003014299652898351 0.0015031647941408245
C 6.256255573917596 2.6802881031407284 4.461247860988759 -0.003087786981442419 -0.014331403045082285 0.019034493947655634
C 6.1896884910753345 6.1896884910753345 0.9287494919753306 0.07415135596652692 0.07415135596653269 -0.07431721087727215
C 6.2508189224933135 6.2508189224933135 4.4659301075172175 0.007325664269344934 0.007325664269344934 0.00789954774652124
C 2.6896792751166303 0.8954254910234745 2.6896792751166303 -0.014035897206946433 -0.012470754982171125 -0.014035897206946433
C 2.663263170895563 0.8841403363493225 6.266913398561209 -0.0030142996529012363 0.00150316479414371 -0.008167255848997189
C 2.677938085053943 4.4718551243359785 2.677938085053943 0.0017875115499400955 -0.010269459081604307 0.0017875115499314392
C 2.6802881031407284 4.461247860988759 6.256255573917596 -0.014331403045082285 0.019034493947652747 -0.003087786981442419
C 6.266913398561209 0.8841403363493225 2.663263170895563 -0.008167255848997189 0.0015031647941465952 -0.0030142996528925805
C 6.1896884910753345 0.9287494919753306 6.1896884910753345 0.07415135596653558 -0.07431721087726927 0.07415135596652692
C 6.256255573917596 4.461247860988759 2.6802881031407284 -0.0030877869814510757 0.019034493947649864 -0.014331403045082285
C 6.2508189224933135 4.4659301075172175 6.2508189224933135 0.007325664269342048 0.007899547746518354 0.007325664269342048
C 0.8954254910234745 2.6896792751166303 2.6896792751166303 -0.012470754982171125 -0.014035897206943548 -0.014035897206949317
C 0.8841403363493225 2.663263170895563 6.266913398561209 0.001503164794149481 -0.0030142996528925805 -0.008167255848994304
C 0.8841403363493225 6.266913398561209 2.663263170895563 0.0015031647941408245 -0.008167255849000075 -0.0030142996529012363
C 0.9287494919753306 6.1896884910753345 6.1896884910753345 -0.07431721087726927 0.07415135596652982 0.07415135596653558
C 4.4718551243359785 2.677938085053943 2.677938085053943 -0.010269459081604307 0.0017875115499314392 0.0017875115499400955
C 4.461247860988759 2.6802881031407284 6.256255573917596 0.019034493947646978 -0.014331403045082285 -0.0030877869814510757
C 4.461247860988759 6.256255573917596 2.6802881031407284 0.019034493947655634 -0.003087786981442419 -0.0143314030450794
C 4.4659301075172175 6.2508189224933135 6.2508189224933135 0.007899547746518354 0.007325664269344934 0.007325664269342048
N 0.972443211547442 0.972443211547442 0.972443211547442 -0.05199649936801153 -0.05199649936801153 -0.05199649936801153
