CRYSTAL
PRIMVEC
7.1445097923 0.0 0.0
0.0 7.1445097923 0.0
0.0 0.0 7.1445097923
PRIMCOORD
63 1
C 7.143523300324489 7.143523300324489 3.571311548660724 0.009135093464594181 -0.006118302638544415 0.0030471040206469287
C 7.143523300324489 3.571311548660724 7.143523300324489 0.008933862297058745 0.004410188998830322 -0.0045675467322927625
C 0.00028094835873726255 3.572035695436682 3.572035695436682 0.009539613296206909 0.008310710841754722 0.007062311801585135
C 3.571311548660724 7.143523300324489 7.143523300324489 -0.007457293019483021 -0.0045675467322927625 -0.0028155596585085585
C 3.572035695436682 0.00028094835873726255 3.572035695436682 -0.00935604111282541 -0.005641658105980029 0.00026454703268243777
C 3.572035695436682 3.572035695436682 0.00028094835873726255 -0.00857525787444293 0.002293729311234503 -0.0038979551902211082
C 3.5732344199568953 3.5732344199568953 3.5732344199568953 -0.007763136885810381 0.004591062842881527 0.0031720740429259683
C 1.7838109097680632 1.7838109097680632 0.04086379497745655 -0.038399492588724 0.02532492339261781 -0.004558030738614168
C 1.7863868037188164 1.7863868037188164 3.5815479336918425 -0.039035250953143384 0.022715093402060856 0.002122399231371877
C 1.7661556553832538 5.372563783408489 7.134025026363306 -0.045964567036998055 -0.02703932222505459 -0.008336253732995633
C 1.7831217021202266 5.366092369211927 3.5658688670941716 -0.037073417818463676 -0.020280398529829113 0.000685193283191772
C 5.372563783408489 1.7661556553832538 7.134025026363306 0.043673124789998324 0.025847861435284933 -0.006033510558411521
C 5.366092369211927 1.7831217021202266 3.5658688670941716 0.03565548824804296 0.01961696247916114 0.007566956186227584
C 5.361069637231072 5.361069637231072 0.004265647851478337 0.042547964269678926 -0.01924993248466987 0.003956423796300392
C 5.3591558259536844 5.3591558259536844 3.5701921609434013 0.039563386857558495 -0.023325777415358347 0.002895143566464469
C 1.7838109097680632 0.04086379497745655 1.7838109097680632 -0.03766421185697052 -0.006597010434682897 0.018740892914652973
C 1.7661556553832538 7.134025026363306 5.372563783408489 -0.04633990361980503 -0.011418078322691271 -0.019257883337311498
C 1.7863868037188164 3.5815479336918425 1.7863868037188164 -0.039139277257275916 0.003071828752119642 0.015518495425319457
C 1.7831217021202266 3.5658688670941716 5.366092369211927 -0.03772218938035965 0.0029261582892555252 -0.013629103729380398
C 5.372563783408489 7.134025026363306 1.7661556553832538 0.04333261547102535 -0.009379825511356188 0.0172242340738229
C 5.361069637231072 0.004265647851478337 5.361069637231072 0.04420999331558005 0.005726281932918266 -0.010489869953717148
C 5.366092369211927 3.5658688670941716 1.7831217021202266 0.03588205311077853 0.009017490027357852 0.012456800744355016
C 5.3591558259536844 3.5701921609434013 5.3591558259536844 0.03958354795884941 0.00419025088094808 -0.016082241129787962
C 0.04086379497745655 1.7838109097680632 1.7838109097680632 0.011155041173299952 0.01965859967406814 0.012339288464355593
C 7.134025026363306 1.7661556553832538 5.372563783408489 0.017716079244357592 0.02874033296317804 -0.016293293245970765
C 7.134025026363306 5.372563783408489 1.7661556553832538 0.017451588881108565 -0.024415241452686826 0.020492042184522982
C 0.004265647851478337 5.361069637231072 5.361069637231072 -0.009682705729207116 -0.03205809431595601 -0.02496006083090441
C 3.5815479336918425 1.7863868037188164 1.7863868037188164 -0.005194227983494404 0.023516755527823927 0.01642418385521506
C 3.5658688670941716 1.7831217021202266 5.366092369211927 -0.009702683310555396 0.02461661707410866 -0.015601654580949417
C 3.5658688670941716 5.366092369211927 1.7831217021202266 -0.010493114475485994 -0.02202638451866257 0.01810522690119851
C 3.5701921609434013 5.3591558259536844 5.3591558259536844 -0.007085394447415434 -0.023481145727770533 -0.016257770543491062
C 0.8891763930223894 0.8891763930223894 4.473102038950778 0.022072436739740665 -0.01281700230744027 0.010110143119706153
C 0.8891763930223894 4.473102038950778 0.8891763930223894 0.02213890993965183 0.014632792862010736 -0.008743169316372175
C 0.8857532038595732 4.458549744437919 4.458549744437919 0.020866443276651762 0.00927782931946156 0.0060988493342096
C 4.473102038950778 0.8891763930223894 0.8891763930223894 -0.024742935981714002 -0.013329267423374262 -0.009321907632217331
C 4.458549744437919 0.8857532038595732 4.458549744437919 -0.01679597929265815 -0.012340263195113145 0.007702323074531554
C 4.458549744437919 4.458549744437919 0.8857532038595732 -0.016980152393990228 0.010697129958451438 -0.008526180081544389
C 4.465820367815873 4.465820367815873 4.465820367815873 -0.021076270131354595 0.012464353274964845 0.008611916856392635
C 2.6896792751166303 2.6896792751166303 0.8954254910234745 0.031621790124946876 -0.018625607711750956 -0.008270352925959366
C 2.677938085053943 2.677938085053943 4.4718551243359785 0.0330106248174985 -0.019401957584148626 0.008567046021910886
C 2.663263170895563 6.266913398561209 0.8841403363493225 0.03284844914081319 0.02304355528806585 -0.010554915942129995
C 2.6802881031407284 6.256255573917596 4.461247860988759 0.030166549031557043 0.020566182509940995 0.012984899355665835
C 6.266913398561209 2.663263170895563 0.8841403363493225 -0.0344393238575572 -0.02059354479299526 -0.004929196524082649
C 6.256255573917596 2.6802881031407284 4.461247860988759 -0.034657608923925484 -0.016103631678973194 0.003421384195710078
C 6.1896884910753345 6.1896884910753345 0.9287494919753306 -0.04196507464739036 0.020188769619204103 -0.01824671233934813
C 6.2508189224933135 6.2508189224933135 4.4659301075172175 -0.03003476397232846 0.017773361178527798 0.008962367932906747
C 2.6896792751166303 0.8954254910234745 2.6896792751166303 0.03164295390452063 -0.011969994868361153 -0.012833087120482608
C 2.663263170895563 0.8841403363493225 6.266913398561209 0.032520348281658194 -0.013695149028529226 0.01719346812342567
C 2.677938085053943 4.4718551243359785 2.677938085053943 0.0330444371482194 0.012399410017608832 -0.01334809789803452
C 2.6802881031407284 4.461247860988759 6.256255573917596 0.030654717503761385 0.01610524817420894 0.014242898519752757
C 6.266913398561209 0.8841403363493225 2.663263170895563 -0.03368699536694483 -0.008715593103159273 -0.01478336130312187
C 6.1896884910753345 0.9287494919753306 6.1896884910753345 -0.04326629884566417 -0.026409157507764968 0.01174862822472532
C 6.256255573917596 4.461247860988759 2.6802881031407284 -0.03463795340717428 0.007640187078314413 -0.010300924860126539
C 6.2508189224933135 4.4659301075172175 6.2508189224933135 -0.030031666373175923 0.012971574384515669 0.012285273947765372
C 0.8954254910234745 2.6896792751166303 2.6896792751166303 0.020240347794317635 -0.01878870300446138 -0.013017346192769678
C 0.8841403363493225 2.663263170895563 6.266913398561209 0.019270509045283497 -0.018065087837688436 0.010643440078873209
C 0.8841403363493225 6.266913398561209 2.663263170895563 0.018624345552608994 0.01724585573412865 -0.011926803488660053
C 0.9287494919753306 6.1896884910753345 6.1896884910753345 0.04465586984710444 0.030216446422662153 0.023077529226457175
C 4.4718551243359785 2.677938085053943 2.677938085053943 -0.02096645603951395 -0.01966252691946398 -0.013642479564067887
C 4.461247860988759 2.6802881031407284 6.256255573917596 -0.02062508643397448 -0.019865624171427614 0.014071770897227517
C 4.461247860988759 6.256255573917596 2.6802881031407284 -0.01952663236991613 0.020414710404169843 -0.014551085824785303
C 4.4659301075172175 6.2508189224933135 6.2508189224933135 -0.021933942317422413 0.017749490024557318 0.012258305194639467
N 0.972443211547442 0.972443211547442 0.972443211547442 0.017352965388812248 -0.010262417857919376 -0.007090547530892872
