CRYSTAL
PRIMVEC
7.1445097923 0.0 0.0
0.0 7.1445097923 0.0
0.0 0.0 7.1445097923
PRIMCOORD
63 1
C 7.143523300324489 7.143523300324489 3.571311548660724 -0.0 -0.006783531928869299 -0.006851693937877189
C 7.143523300324489 3.571311548660724 7.143523300324489 -0.0019068395485900102 0.006064716458791435 0.007911223006281193
C 0.00028094835873726255 3.572035695436682 3.572035695436682 -0.001006727347801194 0.005103663742713572 -0.0067259980903306114
C 3.571311548660724 7.143523300324489 7.143523300324489 0.0007869774790828685 -0.007911223006281193 0.008690371477456424
C 3.572035695436682 0.00028094835873726255 3.572035695436682 -0.002753142384456063 -0.007758183782893508 -0.00974911858382413
C 3.572035695436682 3.572035695436682 0.00028094835873726255 0.00464545484111056 0.009479140474786674 0.008764911130694702
C 3.5732344199568953 3.5732344199568953 3.5732344199568953 0.0008192535656329162 0.006313446973350515 -0.0071327005389834304
C 1.7838109097680632 1.7838109097680632 0.04086379497745655 0.0005298382445847288 0.02886953437094187 0.010249151774538676
C 1.7863868037188164 1.7863868037188164 3.5815479336918425 0.004617797623227919 0.03207957923040406 -0.004772410081445834
C 1.7661556553832538 5.372563783408489 7.134025026363306 0.006648822793783584 -0.03442503444843408 0.01564382790464897
C 1.7831217021202266 5.366092369211927 3.5658688670941716 0.007020473231281463 -0.029724132494698116 -0.010808097115919357
C 5.372563783408489 1.7661556553832538 7.134025026363306 -0.0029776020962204 0.03858544190059681 0.016667910131529833
C 5.366092369211927 1.7831217021202266 3.5658688670941716 -0.004848172324152806 0.032231973818317314 -0.007747620743052673
C 5.361069637231072 5.361069637231072 0.004265647851478337 -0.012452420141480763 -0.03993534938133446 -0.00889638317466685
C 5.3591558259536844 5.3591558259536844 3.5701921609434013 -0.004271759561354131 -0.032240000269228915 -0.0065099968656170855
C 1.7838109097680632 0.04086379497745655 1.7838109097680632 0.007497259821429497 -0.009071946298140558 -0.03351985519655992
C 1.7661556553832538 7.134025026363306 5.372563783408489 0.0030921836861569018 -0.013559128483352676 0.03931083657889627
C 1.7863868037188164 3.5815479336918425 1.7863868037188164 0.0036320583203179454 0.004224256692064027 -0.0361144177801369
C 1.7831217021202266 3.5658688670941716 5.366092369211927 0.0008728009428789869 0.010426986658124214 0.033302644769219535
C 5.372563783408489 7.134025026363306 1.7661556553832538 -0.006204222723792548 -0.015041321457491638 -0.043130894124885515
C 5.361069637231072 0.004265647851478337 5.361069637231072 0.0032967441378051205 0.007874555103063504 0.0430738280075926
C 5.366092369211927 3.5658688670941716 1.7831217021202266 -0.0027012740783526373 0.005997443347708714 -0.03561675825154374
C 5.3591558259536844 3.5701921609434013 5.3591558259536844 -0.00408071567010623 0.005762266308968879 0.03639877785907349
C 0.04086379497745655 1.7838109097680632 1.7838109097680632 -0.001177205476398118 0.03299001695197231 -0.03636679419237137
C 7.134025026363306 1.7661556553832538 5.372563783408489 -0.0006025064471544464 0.03648207133110193 0.04062925717222663
C 7.134025026363306 5.372563783408489 1.7661556553832538 -0.0031087816481771557 -0.03633323448267587 -0.04167762558675372
C 0.004265647851478337 5.361069637231072 5.361069637231072 0.0010218280716033444 -0.03062140786611183 0.03663860524352934
C 3.5815479336918425 1.7863868037188164 1.7863868037188164 0.0005481533893818064 0.03149662015690898 -0.03571163755072201
C 3.5658688670941716 1.7831217021202266 5.366092369211927 0.004810653768213527 0.02859628502026516 0.032425406573053636
C 3.5658688670941716 5.366092369211927 1.7831217021202266 -0.002679365915071542 -0.02845447244506673 -0.0331047747611963
C 3.5701921609434013 5.3591558259536844 5.3591558259536844 0.0007477305566482065 -0.032127018297719356 0.03632071593933803
C 0.8891763930223894 0.8891763930223894 4.473102038950778 -0.0026477849766073564 -0.018163911494043377 -0.022733587647462843
C 0.8891763930223894 4.473102038950778 0.8891763930223894 -0.0020178938515845696 0.020122434601292215 0.020439183428346
C 0.8857532038595732 4.458549744437919 4.458549744437919 -0.0022020619123315913 0.014250433856018084 -0.015873154026986157
C 4.473102038950778 0.8891763930223894 0.8891763930223894 0.002611153046170628 -0.017791398451738646 0.020181805345627947
C 4.458549744437919 0.8857532038595732 4.458549744437919 0.0026548185562154315 -0.016969839008041828 -0.015160052810640163
C 4.458549744437919 4.458549744437919 0.8857532038595732 0.0009096189546220793 0.013218335470770726 0.01917190092037342
C 4.465820367815873 4.465820367815873 4.465820367815873 0.0022242052032967635 0.01714048274912904 -0.0193646879524258
C 2.6896792751166303 2.6896792751166303 0.8954254910234745 -0.003438476433805724 -0.025784636283261123 0.018596650006987955
C 2.677938085053943 2.677938085053943 4.4718551243359785 -0.0036456372953008196 -0.026954703931474998 -0.01926379174982589
C 2.663263170895563 6.266913398561209 0.8841403363493225 -0.0018947056981411094 0.02559418883793525 0.016157783608970924
C 2.6802881031407284 6.256255573917596 4.461247860988759 -0.005522181722095536 0.028122572439296407 -0.01631896327103831
C 6.266913398561209 2.663263170895563 0.8841403363493225 3.0246001143747472e-05 -0.025661575039305065 0.018659668896491587
C 6.256255573917596 2.6802881031407284 4.461247860988759 0.0035632972528569884 -0.026099582720670707 -0.020572075823881764
C 6.1896884910753345 6.1896884910753345 0.9287494919753306 0.010662399807922584 0.038303626996507086 0.04102941267330246
C 6.2508189224933135 6.2508189224933135 4.4659301075172175 0.003154766622845557 0.024416126468699874 -0.0201527094640681
C 2.6896792751166303 0.8954254910234745 2.6896792751166303 -0.0032379312976695915 -0.016460660735635627 0.029104511778247074
C 2.663263170895563 0.8841403363493225 6.266913398561209 -0.005003745425055022 -0.013598643858345973 -0.029840452350373803
C 2.677938085053943 4.4718551243359785 2.677938085053943 -0.003325236185284265 0.017051175365277484 0.03041085833440148
C 2.6802881031407284 4.461247860988759 6.256255573917596 -0.0008963627668429605 0.013249043541533622 -0.03179601838897211
C 6.266913398561209 0.8841403363493225 2.663263170895563 0.007159209854010239 -0.017219717145177692 0.029394944279935508
C 6.1896884910753345 0.9287494919753306 6.1896884910753345 -0.0016678261368705315 -0.036316822758072353 -0.041674020620310594
C 6.256255573917596 4.461247860988759 2.6802881031407284 0.00374955029282852 0.019404734343109988 0.028886088666885468
C 6.2508189224933135 4.4659301075172175 6.2508189224933135 0.003184119056894407 0.017837993039993703 -0.0275882519081279
C 0.8954254910234745 2.6896792751166303 2.6896792751166303 -0.0021359892713523295 -0.025666035344441354 0.029022567580930716
C 0.8841403363493225 2.663263170895563 6.266913398561209 0.0010619335362067677 -0.0275002385817944 -0.03275339869194837
C 0.8841403363493225 6.266913398561209 2.663263170895563 -0.005061025038145616 0.029810206349230057 0.030665320464360084
C 0.9287494919753306 6.1896884910753345 6.1896884910753345 -0.004712589915232989 0.031011620812388015 -0.03663580085963655
C 4.4718551243359785 2.677938085053943 2.677938085053943 0.0022126163845484115 -0.026765221039100662 0.030279940116759264
C 4.461247860988759 2.6802881031407284 6.256255573917596 -0.003085771072068793 -0.02336390694478993 -0.03187212273212781
C 4.461247860988759 6.256255573917596 2.6802881031407284 0.007323032282351027 0.028232721136115118 0.026995945487513665
C 4.4659301075172175 6.2508189224933135 6.2508189224933135 0.002314716424074396 0.024433485285282344 -0.027600245525594282
N 0.972443211547442 0.972443211547442 0.972443211547442 -0.0018312801871442769 -0.014112468764130555 0.015943748951274834
