CRYSTAL
PRIMVEC
7.1445097923 0.0 0.0
0.0 7.1445097923 0.0
0.0 0.0 7.1445097923
PRIMCOORD
63 1
C 7.143523300324489 7.143523300324489 3.571311548660724 0.008707543604631217 0.008707543604634103 -0.006591093645808044
C 7.143523300324489 3.571311548660724 7.143523300324489 0.008707543604631217 -0.006591093645808044 0.008707543604634103
C 0.00028094835873726255 3.572035695436682 3.572035695436682 -0.00895533828209036 0.00335706430860512 0.00335706430860512
C 3.571311548660724 7.143523300324489 7.143523300324489 -0.006591093645808044 0.008707543604634103 0.008707543604634103
C 3.572035695436682 0.00028094835873726255 3.572035695436682 0.00335706430860512 -0.008955338282093247 0.00335706430860512
C 3.572035695436682 3.572035695436682 0.00028094835873726255 0.00335706430860512 0.00335706430860512 -0.008955338282093247
C 3.5732344199568953 3.5732344199568953 3.5732344199568953 0.00347433193660933 0.00347433193660933 0.00347433193660933
C 1.7838109097680632 1.7838109097680632 0.04086379497745655 0.0009986356576392416 0.0009986356576334708 -0.037565515873907815
C 1.7863868037188164 1.7863868037188164 3.5815479336918425 -0.020850607266173295 -0.020850607266170412 0.03505811745665028
C 1.7661556553832538 5.372563783408489 7.134025026363306 0.00429459377086808 -0.0060116505114391015 0.04344798841143154
C 1.7831217021202266 5.366092369211927 3.5658688670941716 -0.014330676981862061 0.015471304666666234 -0.03332943388001852
C 5.372563783408489 1.7661556553832538 7.134025026363306 -0.0060116505114391015 0.004294593770870965 0.04344798841143443
C 5.366092369211927 1.7831217021202266 3.5658688670941716 0.015471304666666234 -0.014330676981864946 -0.03332943388001852
C 5.361069637231072 5.361069637231072 0.004265647851478337 -0.003932374106931523 -0.003932374106931523 -0.03603198287892087
C 5.3591558259536844 5.3591558259536844 3.5701921609434013 0.016631486990262408 0.01663148699026529 0.037703908347616825
C 1.7838109097680632 0.04086379497745655 1.7838109097680632 0.0009986356576392416 -0.037565515873907815 0.0009986356576363563
C 1.7661556553832538 7.134025026363306 5.372563783408489 0.00429459377086808 0.04344798841143154 -0.0060116505114391015
C 1.7863868037188164 3.5815479336918425 1.7863868037188164 -0.020850607266173295 0.03505811745665028 -0.020850607266170412
C 1.7831217021202266 3.5658688670941716 5.366092369211927 -0.014330676981862061 -0.033329433880015635 0.015471304666666234
C 5.372563783408489 7.134025026363306 1.7661556553832538 -0.0060116505114391015 0.04344798841143443 0.004294593770870965
C 5.361069637231072 0.004265647851478337 5.361069637231072 -0.003932374106931523 -0.03603198287892087 -0.003932374106931523
C 5.366092369211927 3.5658688670941716 1.7831217021202266 0.015471304666666234 -0.03332943388001852 -0.014330676981862061
C 5.3591558259536844 3.5701921609434013 5.3591558259536844 0.016631486990262408 0.037703908347616825 0.01663148699026529
C 0.04086379497745655 1.7838109097680632 1.7838109097680632 -0.0375655158739107 0.0009986356576363563 0.0009986356576363563
C 7.134025026363306 1.7661556553832538 5.372563783408489 0.04344798841143443 0.004294593770870965 -0.0060116505114391015
C 7.134025026363306 5.372563783408489 1.7661556553832538 0.04344798841143154 -0.0060116505114391015 0.004294593770870965
C 0.004265647851478337 5.361069637231072 5.361069637231072 -0.03603198287892087 -0.003932374106931523 -0.003932374106931523
C 3.5815479336918425 1.7863868037188164 1.7863868037188164 0.03505811745665028 -0.020850607266173295 -0.020850607266173295
C 3.5658688670941716 1.7831217021202266 5.366092369211927 -0.03332943388001852 -0.014330676981862061 0.015471304666666234
C 3.5658688670941716 5.366092369211927 1.7831217021202266 -0.03332943388001852 0.015471304666666234 -0.014330676981862061
C 3.5701921609434013 5.3591558259536844 5.3591558259536844 0.037703908347616825 0.016631486990262408 0.016631486990262408
C 0.8891763930223894 0.8891763930223894 4.473102038950778 -0.018634065357788616 -0.0186340653577915 -0.01479141190357801
C 0.8891763930223894 4.473102038950778 0.8891763930223894 -0.018634065357788616 -0.01479141190357801 -0.0186340653577915
C 0.8857532038595732 4.458549744437919 4.458549744437919 0.030893730482776136 0.008730073238457403 0.008730073238457403
C 4.473102038950778 0.8891763930223894 0.8891763930223894 -0.01479141190357801 -0.018634065357788616 -0.018634065357788616
C 4.458549744437919 0.8857532038595732 4.458549744437919 0.008730073238457403 0.03089373048277902 0.008730073238457403
C 4.458549744437919 4.458549744437919 0.8857532038595732 0.008730073238457403 0.008730073238457403 0.03089373048277902
C 4.465820367815873 4.465820367815873 4.465820367815873 -0.034951279067991614 -0.0349512790679945 -0.0349512790679945
C 2.6896792751166303 2.6896792751166303 0.8954254910234745 -0.011122084117247433 -0.011122084117244548 0.042570632945743155
C 2.677938085053943 2.677938085053943 4.4718551243359785 0.034294913041538054 0.03429491304153516 -0.03628968055565942
C 2.663263170895563 6.266913398561209 0.8841403363493225 0.01996160181539931 0.014964142350821968 -0.023140374729685782
C 2.6802881031407284 6.256255573917596 4.461247860988759 -0.010134637372945494 -0.02725664184523192 0.008740687378847594
C 6.266913398561209 2.663263170895563 0.8841403363493225 0.014964142350824853 0.01996160181539931 -0.023140374729688665
C 6.256255573917596 2.6802881031407284 4.461247860988759 -0.027256641845234804 -0.01013463737294261 0.008740687378847594
C 6.1896884910753345 6.1896884910753345 0.9287494919753306 -0.005303937240930205 -0.005303937240930205 0.0018121156650406365
C 6.2508189224933135 6.2508189224933135 4.4659301075172175 0.009478409971872019 0.009478409971869134 -0.014359907989532407
C 2.6896792751166303 0.8954254910234745 2.6896792751166303 -0.011122084117247433 0.042570632945743155 -0.011122084117244548
C 2.663263170895563 0.8841403363493225 6.266913398561209 0.01996160181539931 -0.023140374729685782 0.014964142350821968
C 2.677938085053943 4.4718551243359785 2.677938085053943 0.034294913041538054 -0.03628968055565942 0.03429491304153516
C 2.6802881031407284 4.461247860988759 6.256255573917596 -0.010134637372945494 0.008740687378847594 -0.02725664184523192
C 6.266913398561209 0.8841403363493225 2.663263170895563 0.014964142350824853 -0.023140374729688665 0.01996160181539931
C 6.1896884910753345 0.9287494919753306 6.1896884910753345 -0.005303937240930205 0.0018121156650406365 -0.0053039372409273205
C 6.256255573917596 4.461247860988759 2.6802881031407284 -0.027256641845234804 0.008740687378847594 -0.01013463737294261
C 6.2508189224933135 4.4659301075172175 6.2508189224933135 0.009478409971872019 -0.014359907989532407 0.009478409971869134
C 0.8954254910234745 2.6896792751166303 2.6896792751166303 0.042570632945743155 -0.011122084117247433 -0.011122084117247433
C 0.8841403363493225 2.663263170895563 6.266913398561209 -0.023140374729688665 0.019961601815402193 0.014964142350824853
C 0.8841403363493225 6.266913398561209 2.663263170895563 -0.023140374729688665 0.014964142350824853 0.01996160181539931
C 0.9287494919753306 6.1896884910753345 6.1896884910753345 0.0018121156650406365 -0.005303937240930205 -0.005303937240930205
C 4.4718551243359785 2.677938085053943 2.677938085053943 -0.03628968055565942 0.034294913041538054 0.034294913041538054
C 4.461247860988759 2.6802881031407284 6.256255573917596 0.008740687378847594 -0.010134637372945494 -0.027256641845234804
C 4.461247860988759 6.256255573917596 2.6802881031407284 0.008740687378847594 -0.027256641845234804 -0.010134637372945494
C 4.4659301075172175 6.2508189224933135 6.2508189224933135 -0.014359907989532407 0.009478409971872019 0.009478409971872019
N 0.972443211547442 0.972443211547442 0.972443211547442 0.0068733433782061275 0.0068733433782061275 0.0068733433782061275
